\ Model birth-death-regulation-capture-efficiency
\ LP format - for model browsing. Use MPS format to capture full model detail.
Minimize
  k_reg
Subject To
 R0: k_deg_2 = 1
 B_lb_0,_0: p[0,0] + 0.3 p[0,1] + 0.09 p[0,2] + 0.027 p[0,3]
   + 0.0081 p[0,4] + 0.3 p[1,0] + 0.09 p[1,1] + 0.027 p[1,2]
   + 0.0081 p[1,3] + 0.00243 p[1,4] + 0.09 p[2,0] + 0.027 p[2,1]
   + 0.0081 p[2,2] + 0.00243 p[2,3] + 0.000729 p[2,4] + 0.027 p[3,0]
   + 0.0081 p[3,1] + 0.00243 p[3,2] + 0.000729 p[3,3] + 0.0002187 p[3,4]
   + 0.0081 p[4,0] + 0.00243 p[4,1] + 0.000729 p[4,2] + 0.0002187 p[4,3]
   + 6.561e-05 p[4,4] >= 0.3242
 B_ub_0,_0: p[0,0] + 0.3 p[0,1] + 0.09 p[0,2] + 0.027 p[0,3]
   + 0.0081 p[0,4] + 0.3 p[1,0] + 0.09 p[1,1] + 0.027 p[1,2]
   + 0.0081 p[1,3] + 0.00243 p[1,4] + 0.09 p[2,0] + 0.027 p[2,1]
   + 0.0081 p[2,2] + 0.00243 p[2,3] + 0.000729 p[2,4] + 0.027 p[3,0]
   + 0.0081 p[3,1] + 0.00243 p[3,2] + 0.000729 p[3,3] + 0.0002187 p[3,4]
   + 0.0081 p[4,0] + 0.00243 p[4,1] + 0.000729 p[4,2] + 0.0002187 p[4,3]
   + 6.561e-05 p[4,4] <= 0.392
 B_lb_0,_1: 0.7 p[0,1] + 0.42 p[0,2] + 0.189 p[0,3] + 0.0756 p[0,4]
   + 0.21 p[1,1] + 0.126 p[1,2] + 0.0567 p[1,3] + 0.02268 p[1,4]
   + 0.063 p[2,1] + 0.0378 p[2,2] + 0.01701 p[2,3] + 0.006804 p[2,4]
   + 0.0189 p[3,1] + 0.01134 p[3,2] + 0.005103 p[3,3] + 0.0020412 p[3,4]
   + 0.00567 p[4,1] + 0.003402 p[4,2] + 0.0015309 p[4,3]
   + 0.00061236 p[4,4] >= 0.1352
 B_ub_0,_1: 0.7 p[0,1] + 0.42 p[0,2] + 0.189 p[0,3] + 0.0756 p[0,4]
   + 0.21 p[1,1] + 0.126 p[1,2] + 0.0567 p[1,3] + 0.02268 p[1,4]
   + 0.063 p[2,1] + 0.0378 p[2,2] + 0.01701 p[2,3] + 0.006804 p[2,4]
   + 0.0189 p[3,1] + 0.01134 p[3,2] + 0.005103 p[3,3] + 0.0020412 p[3,4]
   + 0.00567 p[4,1] + 0.003402 p[4,2] + 0.0015309 p[4,3]
   + 0.00061236 p[4,4] <= 0.197
 B_lb_0,_2: 0.49 p[0,2] + 0.441 p[0,3] + 0.2646 p[0,4] + 0.147 p[1,2]
   + 0.1323 p[1,3] + 0.07938 p[1,4] + 0.0441 p[2,2] + 0.03969 p[2,3]
   + 0.023814 p[2,4] + 0.01323 p[3,2] + 0.011907 p[3,3] + 0.0071442 p[3,4]
   + 0.003969 p[4,2] + 0.0035721 p[4,3] + 0.00214326 p[4,4] >= 0.0048
 B_ub_0,_2: 0.49 p[0,2] + 0.441 p[0,3] + 0.2646 p[0,4] + 0.147 p[1,2]
   + 0.1323 p[1,3] + 0.07938 p[1,4] + 0.0441 p[2,2] + 0.03969 p[2,3]
   + 0.023814 p[2,4] + 0.01323 p[3,2] + 0.011907 p[3,3] + 0.0071442 p[3,4]
   + 0.003969 p[4,2] + 0.0035721 p[4,3] + 0.00214326 p[4,4] <= 0.0578
 B_lb_0,_3: 0.343 p[0,3] + 0.4116 p[0,4] + 0.1029 p[1,3] + 0.12348 p[1,4]
   + 0.03087 p[2,3] + 0.037044 p[2,4] + 0.009261 p[3,3] + 0.0111132 p[3,4]
   + 0.0027783 p[4,3] + 0.00333396 p[4,4] >= -0.033
 B_ub_0,_3: 0.343 p[0,3] + 0.4116 p[0,4] + 0.1029 p[1,3] + 0.12348 p[1,4]
   + 0.03087 p[2,3] + 0.037044 p[2,4] + 0.009261 p[3,3] + 0.0111132 p[3,4]
   + 0.0027783 p[4,3] + 0.00333396 p[4,4] <= 0.0134
 B_lb_1,_0: 0.7 p[1,0] + 0.21 p[1,1] + 0.063 p[1,2] + 0.0189 p[1,3]
   + 0.00567 p[1,4] + 0.42 p[2,0] + 0.126 p[2,1] + 0.0378 p[2,2]
   + 0.01134 p[2,3] + 0.003402 p[2,4] + 0.189 p[3,0] + 0.0567 p[3,1]
   + 0.01701 p[3,2] + 0.005103 p[3,3] + 0.0015309 p[3,4] + 0.0756 p[4,0]
   + 0.02268 p[4,1] + 0.006804 p[4,2] + 0.0020412 p[4,3]
   + 0.00061236 p[4,4] >= 0.150195
 B_ub_1,_0: 0.7 p[1,0] + 0.21 p[1,1] + 0.063 p[1,2] + 0.0189 p[1,3]
   + 0.00567 p[1,4] + 0.42 p[2,0] + 0.126 p[2,1] + 0.0378 p[2,2]
   + 0.01134 p[2,3] + 0.003402 p[2,4] + 0.189 p[3,0] + 0.0567 p[3,1]
   + 0.01701 p[3,2] + 0.005103 p[3,3] + 0.0015309 p[3,4] + 0.0756 p[4,0]
   + 0.02268 p[4,1] + 0.006804 p[4,2] + 0.0020412 p[4,3]
   + 0.00061236 p[4,4] <= 0.2132
 B_lb_1,_1: 0.49 p[1,1] + 0.294 p[1,2] + 0.1323 p[1,3] + 0.05292 p[1,4]
   + 0.294 p[2,1] + 0.1764 p[2,2] + 0.07938 p[2,3] + 0.031752 p[2,4]
   + 0.1323 p[3,1] + 0.07938 p[3,2] + 0.035721 p[3,3] + 0.0142884 p[3,4]
   + 0.05292 p[4,1] + 0.031752 p[4,2] + 0.0142884 p[4,3]
   + 0.00571536 p[4,4] >= 0.0154
 B_ub_1,_1: 0.49 p[1,1] + 0.294 p[1,2] + 0.1323 p[1,3] + 0.05292 p[1,4]
   + 0.294 p[2,1] + 0.1764 p[2,2] + 0.07938 p[2,3] + 0.031752 p[2,4]
   + 0.1323 p[3,1] + 0.07938 p[3,2] + 0.035721 p[3,3] + 0.0142884 p[3,4]
   + 0.05292 p[4,1] + 0.031752 p[4,2] + 0.0142884 p[4,3]
   + 0.00571536 p[4,4] <= 0.0696
 B_lb_1,_2: 0.343 p[1,2] + 0.3087 p[1,3] + 0.18522 p[1,4] + 0.2058 p[2,2]
   + 0.18522 p[2,3] + 0.111132 p[2,4] + 0.09261 p[3,2] + 0.083349 p[3,3]
   + 0.0500094 p[3,4] + 0.037044 p[4,2] + 0.0333396 p[4,3]
   + 0.0200037600000022 p[4,4] >= -0.0282
 B_ub_1,_2: 0.343 p[1,2] + 0.3087 p[1,3] + 0.18522 p[1,4] + 0.2058 p[2,2]
   + 0.18522 p[2,3] + 0.111132 p[2,4] + 0.09261 p[3,2] + 0.083349 p[3,3]
   + 0.0500094 p[3,4] + 0.037044 p[4,2] + 0.0333396 p[4,3]
   + 0.0200037600000022 p[4,4] <= 0.0194
 B_lb_1,_3: 0.2401 p[1,3] + 0.28812 p[1,4] + 0.14406 p[2,3]
   + 0.172872 p[2,4] + 0.064827 p[3,3] + 0.0777924 p[3,4]
   + 0.0259308 p[4,3] + 0.0311169600000004 p[4,4] >= -0.0396
 B_ub_1,_3: 0.2401 p[1,3] + 0.28812 p[1,4] + 0.14406 p[2,3]
   + 0.172872 p[2,4] + 0.064827 p[3,3] + 0.0777924 p[3,4]
   + 0.0259308 p[4,3] + 0.0311169600000004 p[4,4] <= 0.0042
 B_lb_2,_0: 0.49 p[2,0] + 0.147 p[2,1] + 0.0441 p[2,2] + 0.01323 p[2,3]
   + 0.003969 p[2,4] + 0.441 p[3,0] + 0.1323 p[3,1] + 0.03969 p[3,2]
   + 0.011907 p[3,3] + 0.0035721 p[3,4] + 0.2646 p[4,0] + 0.07938 p[4,1]
   + 0.023814 p[4,2] + 0.0071442 p[4,3] + 0.00214326 p[4,4] >= 0.006
 B_ub_2,_0: 0.49 p[2,0] + 0.147 p[2,1] + 0.0441 p[2,2] + 0.01323 p[2,3]
   + 0.003969 p[2,4] + 0.441 p[3,0] + 0.1323 p[3,1] + 0.03969 p[3,2]
   + 0.011907 p[3,3] + 0.0035721 p[3,4] + 0.2646 p[4,0] + 0.07938 p[4,1]
   + 0.023814 p[4,2] + 0.0071442 p[4,3] + 0.00214326 p[4,4] <= 0.059405
 B_lb_2,_1: 0.343 p[2,1] + 0.2058 p[2,2] + 0.09261 p[2,3] + 0.037044 p[2,4]
   + 0.3087 p[3,1] + 0.18522 p[3,2] + 0.083349 p[3,3] + 0.0333396 p[3,4]
   + 0.18522 p[4,1] + 0.111132 p[4,2] + 0.0500094 p[4,3]
   + 0.0200037600000022 p[4,4] >= -0.0292
 B_ub_2,_1: 0.343 p[2,1] + 0.2058 p[2,2] + 0.09261 p[2,3] + 0.037044 p[2,4]
   + 0.3087 p[3,1] + 0.18522 p[3,2] + 0.083349 p[3,3] + 0.0333396 p[3,4]
   + 0.18522 p[4,1] + 0.111132 p[4,2] + 0.0500094 p[4,3]
   + 0.0200037600000022 p[4,4] <= 0.0184
 B_lb_2,_2: 0.2401 p[2,2] + 0.21609 p[2,3] + 0.129654 p[2,4]
   + 0.21609 p[3,2] + 0.194481 p[3,3] + 0.1166885999999923 p[3,4]
   + 0.129654 p[4,2] + 0.1166885999999923 p[4,3]
   + 0.0700131600000008 p[4,4] >= -0.0408
 B_ub_2,_2: 0.2401 p[2,2] + 0.21609 p[2,3] + 0.129654 p[2,4]
   + 0.21609 p[3,2] + 0.194481 p[3,3] + 0.1166885999999923 p[3,4]
   + 0.129654 p[4,2] + 0.1166885999999923 p[4,3]
   + 0.0700131600000008 p[4,4] <= 1
 B_lb_2,_3: 0.16807 p[2,3] + 0.201684 p[2,4] + 0.151263 p[3,3]
   + 0.1815156000000005 p[3,4] + 0.0907578 p[4,3]
   + 0.1089093600000111 p[4,4] >= -0.0408
 B_ub_2,_3: 0.16807 p[2,3] + 0.201684 p[2,4] + 0.151263 p[3,3]
   + 0.1815156000000005 p[3,4] + 0.0907578 p[4,3]
   + 0.1089093600000111 p[4,4] <= 1
 B_lb_3,_0: 0.343 p[3,0] + 0.1029 p[3,1] + 0.03087 p[3,2] + 0.009261 p[3,3]
   + 0.0027783 p[3,4] + 0.4116 p[4,0] + 0.12348 p[4,1] + 0.037044 p[4,2]
   + 0.0111132 p[4,3] + 0.00333396 p[4,4] >= -0.031
 B_ub_3,_0: 0.343 p[3,0] + 0.1029 p[3,1] + 0.03087 p[3,2] + 0.009261 p[3,3]
   + 0.0027783 p[3,4] + 0.4116 p[4,0] + 0.12348 p[4,1] + 0.037044 p[4,2]
   + 0.0111132 p[4,3] + 0.00333396 p[4,4] <= 0.016
 B_lb_3,_1: 0.2401 p[3,1] + 0.14406 p[3,2] + 0.064827 p[3,3]
   + 0.0259308 p[3,4] + 0.28812 p[4,1] + 0.172872 p[4,2] + 0.0777924 p[4,3]
   + 0.0311169600000004 p[4,4] >= -0.0398
 B_ub_3,_1: 0.2401 p[3,1] + 0.14406 p[3,2] + 0.064827 p[3,3]
   + 0.0259308 p[3,4] + 0.28812 p[4,1] + 0.172872 p[4,2] + 0.0777924 p[4,3]
   + 0.0311169600000004 p[4,4] <= 0.0036
 B_lb_3,_2: 0.16807 p[3,2] + 0.151263 p[3,3] + 0.0907578 p[3,4]
   + 0.201684 p[4,2] + 0.1815156000000005 p[4,3]
   + 0.1089093600000111 p[4,4] >= -0.0408
 B_ub_3,_2: 0.16807 p[3,2] + 0.151263 p[3,3] + 0.0907578 p[3,4]
   + 0.201684 p[4,2] + 0.1815156000000005 p[4,3]
   + 0.1089093600000111 p[4,4] <= 1
 B_lb_3,_3: 0.117649 p[3,3] + 0.1411788000000027 p[3,4]
   + 0.1411788000000027 p[4,3] + 0.169414559999984 p[4,4] >= -0.0408
 B_ub_3,_3: 0.117649 p[3,3] + 0.1411788000000027 p[3,4]
   + 0.1411788000000027 p[4,3] + 0.169414559999984 p[4,4] <= 1
 B_marginal_lb_0: p1[0] + 0.3 p1[1] + 0.09 p1[2] + 0.027 p1[3]
   + 0.0081 p1[4] >= 0.4717128571428572
 B_marginal_ub_0: p1[0] + 0.3 p1[1] + 0.09 p1[2] + 0.027 p1[3]
   + 0.0081 p1[4] <= 0.6418
 B_marginal_lb_1: 0.7 p1[1] + 0.42 p1[2] + 0.189 p1[3] + 0.0756 p1[4]
   >= 0.1283128571428571
 B_marginal_ub_1: 0.7 p1[1] + 0.42 p1[2] + 0.189 p1[3] + 0.0756 p1[4]
   <= 0.296405
 B_marginal_lb_2: 0.49 p1[2] + 0.441 p1[3] + 0.2646 p1[4]
   >= -0.0798871428571428
 B_marginal_ub_2: 0.49 p1[2] + 0.441 p1[3] + 0.2646 p1[4] <= 0.0772
 B_marginal_lb_3: 0.343 p1[3] + 0.4116 p1[4] >= -0.1312871428571428
 B_marginal_ub_3: 0.343 p1[3] + 0.4116 p1[4] <= 0.0184
 B_marginal_lb_0: p2[0] + 0.3 p2[1] + 0.09 p2[2] + 0.027 p2[3]
   + 0.0081 p2[4] >= 0.5012842857142858
 B_marginal_ub_0: p2[0] + 0.3 p2[1] + 0.09 p2[2] + 0.027 p2[3]
   + 0.0081 p2[4] <= 0.6616
 B_marginal_lb_1: 0.7 p2[1] + 0.42 p2[2] + 0.189 p2[3] + 0.0756 p2[4]
   >= 0.1204842857142858
 B_marginal_ub_1: 0.7 p2[1] + 0.42 p2[2] + 0.189 p2[3] + 0.0756 p2[4]
   <= 0.2792
 B_marginal_lb_2: 0.49 p2[2] + 0.441 p2[3] + 0.2646 p2[4]
   >= -0.0719157142857142
 B_marginal_ub_2: 0.49 p2[2] + 0.441 p2[3] + 0.2646 p2[4] <= 0.0762
 B_marginal_lb_3: 0.343 p2[3] + 0.4116 p2[4] >= -0.1243157142857142
 B_marginal_ub_3: 0.343 p2[3] + 0.4116 p2[4] <= 0.0164
 frechet_lb_0,_0: - p[0,0] + p1[0] + p2[0] <= 1
 frechet_ub_x1_0: p[0,0] - p1[0] <= 0
 frechet_ub_x2_0: p[0,0] - p2[0] <= 0
 frechet_lb_0,_1: - p[0,1] + p1[0] + p2[1] <= 1
 frechet_ub_x1_0: p[0,1] - p1[0] <= 0
 frechet_ub_x2_1: p[0,1] - p2[1] <= 0
 frechet_lb_0,_2: - p[0,2] + p1[0] + p2[2] <= 1
 frechet_ub_x1_0: p[0,2] - p1[0] <= 0
 frechet_ub_x2_2: p[0,2] - p2[2] <= 0
 frechet_lb_0,_3: - p[0,3] + p1[0] + p2[3] <= 1
 frechet_ub_x1_0: p[0,3] - p1[0] <= 0
 frechet_ub_x2_3: p[0,3] - p2[3] <= 0
 frechet_lb_0,_4: - p[0,4] + p1[0] + p2[4] <= 1
 frechet_ub_x1_0: p[0,4] - p1[0] <= 0
 frechet_ub_x2_4: p[0,4] - p2[4] <= 0
 frechet_lb_1,_0: - p[1,0] + p1[1] + p2[0] <= 1
 frechet_ub_x1_1: p[1,0] - p1[1] <= 0
 frechet_ub_x2_0: p[1,0] - p2[0] <= 0
 frechet_lb_1,_1: - p[1,1] + p1[1] + p2[1] <= 1
 frechet_ub_x1_1: p[1,1] - p1[1] <= 0
 frechet_ub_x2_1: p[1,1] - p2[1] <= 0
 frechet_lb_1,_2: - p[1,2] + p1[1] + p2[2] <= 1
 frechet_ub_x1_1: p[1,2] - p1[1] <= 0
 frechet_ub_x2_2: p[1,2] - p2[2] <= 0
 frechet_lb_1,_3: - p[1,3] + p1[1] + p2[3] <= 1
 frechet_ub_x1_1: p[1,3] - p1[1] <= 0
 frechet_ub_x2_3: p[1,3] - p2[3] <= 0
 frechet_lb_1,_4: - p[1,4] + p1[1] + p2[4] <= 1
 frechet_ub_x1_1: p[1,4] - p1[1] <= 0
 frechet_ub_x2_4: p[1,4] - p2[4] <= 0
 frechet_lb_2,_0: - p[2,0] + p1[2] + p2[0] <= 1
 frechet_ub_x1_2: p[2,0] - p1[2] <= 0
 frechet_ub_x2_0: p[2,0] - p2[0] <= 0
 frechet_lb_2,_1: - p[2,1] + p1[2] + p2[1] <= 1
 frechet_ub_x1_2: p[2,1] - p1[2] <= 0
 frechet_ub_x2_1: p[2,1] - p2[1] <= 0
 frechet_lb_2,_2: - p[2,2] + p1[2] + p2[2] <= 1
 frechet_ub_x1_2: p[2,2] - p1[2] <= 0
 frechet_ub_x2_2: p[2,2] - p2[2] <= 0
 frechet_lb_2,_3: - p[2,3] + p1[2] + p2[3] <= 1
 frechet_ub_x1_2: p[2,3] - p1[2] <= 0
 frechet_ub_x2_3: p[2,3] - p2[3] <= 0
 frechet_lb_2,_4: - p[2,4] + p1[2] + p2[4] <= 1
 frechet_ub_x1_2: p[2,4] - p1[2] <= 0
 frechet_ub_x2_4: p[2,4] - p2[4] <= 0
 frechet_lb_3,_0: - p[3,0] + p1[3] + p2[0] <= 1
 frechet_ub_x1_3: p[3,0] - p1[3] <= 0
 frechet_ub_x2_0: p[3,0] - p2[0] <= 0
 frechet_lb_3,_1: - p[3,1] + p1[3] + p2[1] <= 1
 frechet_ub_x1_3: p[3,1] - p1[3] <= 0
 frechet_ub_x2_1: p[3,1] - p2[1] <= 0
 frechet_lb_3,_2: - p[3,2] + p1[3] + p2[2] <= 1
 frechet_ub_x1_3: p[3,2] - p1[3] <= 0
 frechet_ub_x2_2: p[3,2] - p2[2] <= 0
 frechet_lb_3,_3: - p[3,3] + p1[3] + p2[3] <= 1
 frechet_ub_x1_3: p[3,3] - p1[3] <= 0
 frechet_ub_x2_3: p[3,3] - p2[3] <= 0
 frechet_lb_3,_4: - p[3,4] + p1[3] + p2[4] <= 1
 frechet_ub_x1_3: p[3,4] - p1[3] <= 0
 frechet_ub_x2_4: p[3,4] - p2[4] <= 0
 frechet_lb_4,_0: - p[4,0] + p1[4] + p2[0] <= 1
 frechet_ub_x1_4: p[4,0] - p1[4] <= 0
 frechet_ub_x2_0: p[4,0] - p2[0] <= 0
 frechet_lb_4,_1: - p[4,1] + p1[4] + p2[1] <= 1
 frechet_ub_x1_4: p[4,1] - p1[4] <= 0
 frechet_ub_x2_1: p[4,1] - p2[1] <= 0
 frechet_lb_4,_2: - p[4,2] + p1[4] + p2[2] <= 1
 frechet_ub_x1_4: p[4,2] - p1[4] <= 0
 frechet_ub_x2_2: p[4,2] - p2[2] <= 0
 frechet_lb_4,_3: - p[4,3] + p1[4] + p2[3] <= 1
 frechet_ub_x1_4: p[4,3] - p1[4] <= 0
 frechet_ub_x2_3: p[4,3] - p2[3] <= 0
 frechet_lb_4,_4: - p[4,4] + p1[4] + p2[4] <= 1
 frechet_ub_x1_4: p[4,4] - p1[4] <= 0
 frechet_ub_x2_4: p[4,4] - p2[4] <= 0
 Distribution: p[0,0] + p[0,1] + p[0,2] + p[0,3] + p[0,4] + p[1,0] + p[1,1]
   + p[1,2] + p[1,3] + p[1,4] + p[2,0] + p[2,1] + p[2,2] + p[2,3] + p[2,4]
   + p[3,0] + p[3,1] + p[3,2] + p[3,3] + p[3,4] + p[4,0] + p[4,1] + p[4,2]
   + p[4,3] + p[4,4] <= 1
 Distribution_x1: p1[0] + p1[1] + p1[2] + p1[3] + p1[4] <= 1
 Distribution_x2: p2[0] + p2[1] + p2[2] + p2[3] + p2[4] <= 1
 Equation_0,_0: [ - p[0,0] * k_tx_1 - p[0,0] * k_tx_2 + p[0,1] * k_deg_2
   + p[1,0] * k_deg_1 + p[1,1] * k_reg ] = 0
 Equation_0,_1: [ p[0,0] * k_tx_2 - p[0,1] * k_tx_1 - p[0,1] * k_tx_2
   - p[0,1] * k_deg_2 + 2 p[0,2] * k_deg_2 + p[1,1] * k_deg_1
   + 2 p[1,2] * k_reg ] = 0
 Equation_0,_2: [ p[0,1] * k_tx_2 - p[0,2] * k_tx_1 - p[0,2] * k_tx_2
   - 2 p[0,2] * k_deg_2 + 3 p[0,3] * k_deg_2 + p[1,2] * k_deg_1
   + 3 p[1,3] * k_reg ] = 0
 Equation_0,_3: [ p[0,2] * k_tx_2 - p[0,3] * k_tx_1 - p[0,3] * k_tx_2
   - 3 p[0,3] * k_deg_2 + 4 p[0,4] * k_deg_2 + p[1,3] * k_deg_1
   + 4 p[1,4] * k_reg ] = 0
 Equation_1,_0: [ p[0,0] * k_tx_1 - p[1,0] * k_tx_1 - p[1,0] * k_tx_2
   - p[1,0] * k_deg_1 + p[1,1] * k_deg_2 + 2 p[2,0] * k_deg_1
   + 2 p[2,1] * k_reg ] = 0
 Equation_1,_1: [ p[0,1] * k_tx_1 + p[1,0] * k_tx_2 - p[1,1] * k_tx_1
   - p[1,1] * k_tx_2 - p[1,1] * k_deg_1 - p[1,1] * k_deg_2 - p[1,1] * k_reg
   + 2 p[1,2] * k_deg_2 + 2 p[2,1] * k_deg_1 + 4 p[2,2] * k_reg ] = 0
 Equation_1,_2: [ p[0,2] * k_tx_1 + p[1,1] * k_tx_2 - p[1,2] * k_tx_1
   - p[1,2] * k_tx_2 - p[1,2] * k_deg_1 - 2 p[1,2] * k_deg_2
   - 2 p[1,2] * k_reg + 3 p[1,3] * k_deg_2 + 2 p[2,2] * k_deg_1
   + 6 p[2,3] * k_reg ] = 0
 Equation_1,_3: [ p[0,3] * k_tx_1 + p[1,2] * k_tx_2 - p[1,3] * k_tx_1
   - p[1,3] * k_tx_2 - p[1,3] * k_deg_1 - 3 p[1,3] * k_deg_2
   - 3 p[1,3] * k_reg + 4 p[1,4] * k_deg_2 + 2 p[2,3] * k_deg_1
   + 8 p[2,4] * k_reg ] = 0
 Equation_2,_0: [ p[1,0] * k_tx_1 - p[2,0] * k_tx_1 - p[2,0] * k_tx_2
   - 2 p[2,0] * k_deg_1 + p[2,1] * k_deg_2 + 3 p[3,0] * k_deg_1
   + 3 p[3,1] * k_reg ] = 0
 Equation_2,_1: [ p[1,1] * k_tx_1 + p[2,0] * k_tx_2 - p[2,1] * k_tx_1
   - p[2,1] * k_tx_2 - 2 p[2,1] * k_deg_1 - p[2,1] * k_deg_2
   - 2 p[2,1] * k_reg + 2 p[2,2] * k_deg_2 + 3 p[3,1] * k_deg_1
   + 6 p[3,2] * k_reg ] = 0
 Equation_2,_2: [ p[1,2] * k_tx_1 + p[2,1] * k_tx_2 - p[2,2] * k_tx_1
   - p[2,2] * k_tx_2 - 2 p[2,2] * k_deg_1 - 2 p[2,2] * k_deg_2
   - 4 p[2,2] * k_reg + 3 p[2,3] * k_deg_2 + 3 p[3,2] * k_deg_1
   + 9 p[3,3] * k_reg ] = 0
 Equation_2,_3: [ p[1,3] * k_tx_1 + p[2,2] * k_tx_2 - p[2,3] * k_tx_1
   - p[2,3] * k_tx_2 - 2 p[2,3] * k_deg_1 - 3 p[2,3] * k_deg_2
   - 6 p[2,3] * k_reg + 4 p[2,4] * k_deg_2 + 3 p[3,3] * k_deg_1
   + 12 p[3,4] * k_reg ] = 0
 Equation_3,_0: [ p[2,0] * k_tx_1 - p[3,0] * k_tx_1 - p[3,0] * k_tx_2
   - 3 p[3,0] * k_deg_1 + p[3,1] * k_deg_2 + 4 p[4,0] * k_deg_1
   + 4 p[4,1] * k_reg ] = 0
 Equation_3,_1: [ p[2,1] * k_tx_1 + p[3,0] * k_tx_2 - p[3,1] * k_tx_1
   - p[3,1] * k_tx_2 - 3 p[3,1] * k_deg_1 - p[3,1] * k_deg_2
   - 3 p[3,1] * k_reg + 2 p[3,2] * k_deg_2 + 4 p[4,1] * k_deg_1
   + 8 p[4,2] * k_reg ] = 0
 Equation_3,_2: [ p[2,2] * k_tx_1 + p[3,1] * k_tx_2 - p[3,2] * k_tx_1
   - p[3,2] * k_tx_2 - 3 p[3,2] * k_deg_1 - 2 p[3,2] * k_deg_2
   - 6 p[3,2] * k_reg + 3 p[3,3] * k_deg_2 + 4 p[4,2] * k_deg_1
   + 12 p[4,3] * k_reg ] = 0
 Equation_3,_3: [ p[2,3] * k_tx_1 + p[3,2] * k_tx_2 - p[3,3] * k_tx_1
   - p[3,3] * k_tx_2 - 3 p[3,3] * k_deg_1 - 3 p[3,3] * k_deg_2
   - 9 p[3,3] * k_reg + 4 p[3,4] * k_deg_2 + 4 p[4,3] * k_deg_1
   + 16 p[4,4] * k_reg ] = 0
Bounds
 p[0,0] <= 1
 p[0,1] <= 1
 p[0,2] <= 1
 p[0,3] <= 1
 p[0,4] <= 1
 p[1,0] <= 1
 p[1,1] <= 1
 p[1,2] <= 1
 p[1,3] <= 1
 p[1,4] <= 1
 p[2,0] <= 1
 p[2,1] <= 1
 p[2,2] <= 1
 p[2,3] <= 1
 p[2,4] <= 1
 p[3,0] <= 1
 p[3,1] <= 1
 p[3,2] <= 1
 p[3,3] <= 1
 p[3,4] <= 1
 p[4,0] <= 1
 p[4,1] <= 1
 p[4,2] <= 1
 p[4,3] <= 1
 p[4,4] <= 1
 p1[0] <= 1
 p1[1] <= 1
 p1[2] <= 1
 p1[3] <= 1
 p1[4] <= 1
 p2[0] <= 1
 p2[1] <= 1
 p2[2] <= 1
 p2[3] <= 1
 p2[4] <= 1
 k_tx_1 <= 10
 k_tx_2 <= 10
 k_deg_1 <= 10
 k_deg_2 <= 10
 k_reg <= 10
End
